p edge 1306
e 0 862
e 0 865
e 0 866
e 0 1126
e 1 122
e 1 979
e 1 981
e 1 1086
e 2 179
e 2 180
e 2 571
e 2 1074
e 2 1193
e 3 645
e 3 991
e 3 995
e 3 997
e 3 999
e 4 6
e 4 195
e 4 197
e 4 724
e 4 878
e 4 881
e 4 1155
e 4 1156
e 4 1157
e 4 1268
e 5 6
e 5 549
e 5 550
e 5 1156
e 5 1160
e 6 409
e 6 550
e 6 731
e 6 772
e 6 773
e 6 1156
e 6 1268
e 7 8
e 7 233
e 7 765
e 7 766
e 7 1241
e 8 765
e 8 849
e 8 936
e 8 1241
e 9 605
e 9 735
e 9 736
e 9 738
e 10 11
e 10 27
e 10 362
e 10 1087
e 10 1119
e 11 27
e 11 267
e 11 268
e 11 362
e 12 13
e 12 180
e 12 571
e 12 608
e 12 1075
e 12 1076
e 13 265
e 13 608
e 13 610
e 13 977
e 13 1075
e 14 644
e 14 808
e 14 870
e 14 937
e 14 938
e 15 16
e 15 17
e 15 414
e 15 990
e 15 1272
e 15 1273
e 16 62
e 16 63
e 16 257
e 16 414
e 16 415
e 16 990
e 17 18
e 17 20
e 17 990
e 17 994
e 17 1272
e 18 20
e 18 1272
e 18 1280
e 19 20
e 19 34
e 19 755
e 19 994
e 19 998
e 19 1079
e 20 601
e 20 755
e 20 994
e 20 1280
e 21 66
e 21 553
e 21 771
e 21 1046
e 21 1049
e 22 24
e 22 479
e 22 564
e 22 715
e 22 814
e 22 1192
e 23 25
e 23 26
e 23 277
e 23 298
e 23 440
e 23 446
e 23 454
e 23 584
e 24 297
e 24 479
e 24 557
e 24 564
e 24 565
e 24 567
e 25 26
e 25 182
e 25 474
e 25 557
e 25 980
e 26 439
e 26 474
e 27 267
e 27 442
e 27 576
e 27 1119
e 27 1242
e 28 556
e 28 562
e 28 918
e 29 30
e 29 164
e 29 165
e 29 171
e 29 803
e 29 1190
e 30 164
e 30 169
e 30 171
e 30 932
e 30 933
e 31 32
e 31 208
e 31 210
e 31 212
e 31 213
e 31 214
e 31 606
e 32 206
e 32 208
e 32 606
e 33 35
e 33 119
e 34 755
e 34 757
e 34 1054
e 34 1079
e 34 1177
e 34 1211
e 35 119
e 35 760
e 35 786
e 35 1054
e 36 39
e 36 40
e 36 44
e 36 45
e 36 46
e 36 88
e 36 993
e 36 999
e 36 1228
e 37 38
e 37 39
e 37 44
e 37 45
e 37 46
e 37 633
e 37 720
e 38 45
e 38 391
e 38 633
e 38 832
e 39 44
e 39 46
e 40 88
e 40 877
e 40 999
e 41 202
e 41 203
e 41 204
e 41 207
e 41 234
e 41 606
e 41 1213
e 42 43
e 42 201
e 42 208
e 42 1084
e 42 1239
e 43 203
e 43 206
e 43 208
e 43 659
e 43 827
e 43 1084
e 44 87
e 44 88
e 44 465
e 44 720
e 45 46
e 45 832
e 45 1228
e 47 52
e 47 53
e 47 54
e 47 255
e 47 263
e 47 359
e 47 1137
e 47 1138
e 48 55
e 48 226
e 48 227
e 48 250
e 49 50
e 49 56
e 49 229
e 49 230
e 49 232
e 49 335
e 50 51
e 50 229
e 50 334
e 50 335
e 50 886
e 51 226
e 51 229
e 51 232
e 51 886
e 52 53
e 52 54
e 52 178
e 52 253
e 53 175
e 53 178
e 53 638
e 53 639
e 53 671
e 53 1138
e 54 253
e 54 255
e 55 226
e 55 228
e 55 231
e 55 232
e 55 250
e 55 530
e 55 618
e 55 753
e 56 230
e 56 335
e 56 906
e 57 58
e 57 68
e 57 342
e 57 1036
e 57 1050
e 58 59
e 58 242
e 58 343
e 58 1036
e 59 65
e 59 67
e 59 744
e 59 1036
e 60 363
e 60 367
e 60 368
e 60 1235
e 61 64
e 61 71
e 61 531
e 62 63
e 63 257
e 63 909
e 63 992
e 63 1227
e 64 69
e 64 71
e 64 72
e 64 300
e 64 358
e 64 531
e 65 67
e 65 327
e 65 744
e 65 745
e 65 1037
e 66 68
e 66 771
e 66 1049
e 66 1050
e 67 771
e 67 1036
e 67 1037
e 68 771
e 68 1036
e 69 72
e 69 94
e 69 300
e 69 355
e 70 647
e 70 648
e 70 1273
e 70 1274
e 71 355
e 71 358
e 71 531
e 71 810
e 71 1138
e 72 92
e 72 94
e 72 358
e 72 1236
e 73 74
e 73 75
e 73 222
e 73 328
e 73 339
e 74 222
e 74 339
e 74 818
e 75 247
e 75 328
e 75 344
e 76 219
e 76 325
e 76 340
e 76 373
e 76 411
e 76 413
e 76 545
e 76 552
e 76 554
e 76 747
e 76 787
e 76 1043
e 76 1259
e 77 81
e 77 83
e 77 84
e 77 240
e 77 242
e 77 342
e 77 343
e 77 555
e 77 743
e 78 79
e 78 80
e 78 81
e 78 246
e 78 353
e 78 686
e 78 694
e 78 697
e 78 804
e 78 818
e 78 1102
e 79 80
e 79 339
e 79 818
e 79 922
e 80 922
e 80 1102
e 81 83
e 81 84
e 81 221
e 81 240
e 81 353
e 81 357
e 81 555
e 81 804
e 81 813
e 81 1043
e 82 222
e 82 344
e 82 345
e 82 824
e 83 84
e 83 555
e 85 86
e 85 411
e 85 412
e 85 965
e 85 1109
e 85 1110
e 86 124
e 86 961
e 86 965
e 86 1110
e 87 88
e 88 465
e 88 877
e 89 90
e 89 462
e 89 633
e 89 634
e 89 720
e 89 883
e 90 462
e 90 464
e 90 720
e 91 92
e 91 93
e 91 551
e 91 1134
e 91 1301
e 92 94
e 92 1236
e 92 1301
e 93 94
e 93 352
e 93 370
e 93 372
e 93 1134
e 94 355
e 95 96
e 95 97
e 95 98
e 95 99
e 95 101
e 95 102
e 95 1020
e 95 1239
e 96 97
e 96 99
e 96 784
e 96 1017
e 96 1018
e 96 1020
e 97 99
e 97 102
e 97 364
e 97 784
e 97 785
e 97 1235
e 98 101
e 98 145
e 98 1084
e 98 1239
e 100 101
e 100 145
e 100 147
e 100 782
e 100 783
e 101 102
e 101 145
e 101 364
e 101 366
e 101 782
e 102 364
e 103 104
e 103 105
e 103 106
e 103 631
e 103 632
e 103 884
e 103 1065
e 103 1069
e 103 1081
e 104 106
e 104 632
e 104 704
e 104 705
e 104 1070
e 105 394
e 105 631
e 105 1068
e 105 1069
e 106 1070
e 106 1081
e 107 108
e 107 1247
e 107 1248
e 107 1249
e 107 1250
e 107 1253
e 108 1067
e 108 1248
e 108 1250
e 109 110
e 109 960
e 109 963
e 109 967
e 109 968
e 110 113
e 110 115
e 110 963
e 110 967
e 111 112
e 111 265
e 111 311
e 111 610
e 111 961
e 111 1148
e 112 113
e 112 114
e 112 311
e 112 374
e 112 382
e 112 610
e 113 114
e 113 115
e 113 281
e 113 374
e 113 963
e 114 115
e 114 311
e 115 311
e 115 967
e 115 968
e 116 117
e 116 248
e 116 249
e 116 250
e 116 251
e 116 252
e 117 248
e 117 250
e 118 119
e 118 1054
e 119 760
e 119 1054
e 120 121
e 120 872
e 120 903
e 121 872
e 121 903
e 121 904
e 121 1007
e 121 1008
e 121 1015
e 122 265
e 122 268
e 122 269
e 122 977
e 122 979
e 122 981
e 123 124
e 123 360
e 123 362
e 123 400
e 123 807
e 123 1109
e 124 269
e 124 362
e 124 961
e 124 1109
e 124 1110
e 125 126
e 125 128
e 125 135
e 125 139
e 125 150
e 125 151
e 125 591
e 125 598
e 125 1298
e 125 1300
e 126 137
e 126 139
e 126 596
e 126 1299
e 126 1300
e 127 138
e 127 167
e 127 595
e 128 135
e 128 588
e 128 591
e 128 597
e 128 1294
e 129 173
e 129 597
e 129 1149
e 129 1290
e 129 1293
e 129 1294
e 130 131
e 130 132
e 130 134
e 130 136
e 130 151
e 130 470
e 130 590
e 131 134
e 131 590
e 131 599
e 132 135
e 132 151
e 132 167
e 132 589
e 132 590
e 133 165
e 133 596
e 133 871
e 133 896
e 133 897
e 133 901
e 133 1295
e 134 470
e 134 599
e 135 151
e 135 589
e 135 597
e 136 139
e 136 150
e 136 470
e 137 596
e 137 1295
e 137 1296
e 137 1299
e 137 1300
e 138 167
e 138 590
e 138 595
e 138 599
e 139 418
e 139 425
e 139 470
e 139 596
e 139 833
e 140 591
e 140 593
e 140 598
e 140 875
e 140 1298
e 141 163
e 141 1295
e 141 1296
e 141 1297
e 141 1298
e 142 147
e 142 365
e 142 666
e 142 1085
e 143 146
e 143 659
e 143 662
e 143 665
e 143 730
e 143 826
e 144 145
e 144 663
e 144 665
e 144 1084
e 144 1085
e 145 147
e 145 1084
e 145 1085
e 146 662
e 146 664
e 147 366
e 147 783
e 147 1085
e 148 149
e 148 533
e 148 534
e 148 535
e 149 532
e 149 533
e 149 535
e 150 151
e 152 153
e 152 540
e 152 647
e 152 650
e 152 654
e 152 1154
e 153 649
e 153 652
e 153 654
e 153 1154
e 154 155
e 154 313
e 154 383
e 154 521
e 154 893
e 154 896
e 155 521
e 156 157
e 156 202
e 156 603
e 156 604
e 156 1021
e 156 1023
e 156 1215
e 157 158
e 157 398
e 157 603
e 157 1021
e 157 1022
e 158 398
e 158 603
e 158 1091
e 158 1244
e 158 1245
e 159 407
e 159 408
e 159 661
e 159 666
e 159 1233
e 159 1269
e 159 1270
e 160 161
e 160 162
e 160 602
e 160 656
e 160 1058
e 160 1073
e 161 162
e 161 602
e 162 820
e 162 1058
e 163 789
e 163 794
e 163 797
e 163 798
e 163 871
e 163 1082
e 163 1295
e 163 1297
e 164 165
e 164 416
e 164 428
e 164 932
e 165 428
e 165 596
e 165 803
e 165 895
e 165 897
e 166 1021
e 166 1022
e 166 1024
e 166 1025
e 166 1026
e 166 1027
e 166 1028
e 167 173
e 167 589
e 167 590
e 167 595
e 168 170
e 168 171
e 168 172
e 168 811
e 168 1083
e 169 171
e 169 172
e 169 671
e 169 933
e 170 172
e 170 639
e 170 811
e 170 812
e 171 1083
e 171 1190
e 172 639
e 172 671
e 173 589
e 173 595
e 173 597
e 174 175
e 174 176
e 174 178
e 174 671
e 174 933
e 174 934
e 175 178
e 175 671
e 176 177
e 176 178
e 177 178
e 178 253
e 179 180
e 179 1193
e 180 185
e 180 571
e 180 1076
e 180 1193
e 181 185
e 181 570
e 181 715
e 182 183
e 182 184
e 182 557
e 182 980
e 183 184
e 183 186
e 183 475
e 183 479
e 183 557
e 183 1192
e 184 186
e 184 980
e 184 1074
e 185 570
e 185 1193
e 186 1074
e 186 1192
e 186 1193
e 187 188
e 187 675
e 187 846
e 187 848
e 188 259
e 188 542
e 188 548
e 188 675
e 188 848
e 189 562
e 189 579
e 189 918
e 189 1242
e 190 435
e 190 575
e 190 576
e 191 192
e 191 193
e 191 402
e 191 974
e 191 1087
e 191 1089
e 191 1122
e 192 193
e 192 194
e 192 400
e 192 1087
e 193 194
e 193 290
e 193 401
e 193 403
e 193 1089
e 194 400
e 194 403
e 195 196
e 195 197
e 195 198
e 195 724
e 195 882
e 195 1162
e 196 198
e 196 337
e 196 878
e 196 879
e 196 882
e 197 198
e 197 878
e 198 878
e 199 317
e 199 333
e 199 434
e 199 566
e 199 574
e 199 582
e 200 295
e 200 296
e 200 395
e 200 396
e 200 537
e 200 539
e 201 208
e 201 209
e 201 607
e 201 1025
e 201 1239
e 202 205
e 202 606
e 202 1023
e 202 1215
e 203 204
e 203 206
e 203 207
e 203 827
e 204 233
e 204 234
e 204 765
e 204 827
e 205 211
e 205 212
e 205 1023
e 206 207
e 206 208
e 206 606
e 207 606
e 208 209
e 208 210
e 208 214
e 209 210
e 209 607
e 210 211
e 210 212
e 210 214
e 210 607
e 211 212
e 211 607
e 211 1023
e 212 213
e 212 606
e 213 606
e 215 216
e 215 217
e 215 218
e 215 658
e 215 986
e 216 217
e 216 218
e 216 955
e 216 957
e 217 658
e 217 957
e 217 1092
e 217 1093
e 218 903
e 218 904
e 218 986
e 218 988
e 218 1000
e 219 325
e 219 340
e 219 552
e 219 1042
e 219 1049
e 220 238
e 220 344
e 220 345
e 220 787
e 221 555
e 221 743
e 221 774
e 221 804
e 222 344
e 222 824
e 223 224
e 223 264
e 223 1031
e 223 1275
e 223 1277
e 224 264
e 224 843
e 224 845
e 224 847
e 224 1031
e 225 228
e 225 230
e 225 231
e 225 323
e 225 615
e 225 752
e 226 227
e 226 232
e 226 886
e 227 248
e 227 250
e 227 886
e 228 230
e 228 231
e 228 232
e 229 232
e 230 232
e 230 615
e 231 753
e 233 234
e 233 765
e 233 766
e 234 766
e 234 1213
e 235 568
e 235 572
e 235 582
e 235 733
e 235 1218
e 235 1219
e 236 237
e 236 247
e 236 329
e 236 592
e 236 769
e 237 238
e 237 329
e 237 330
e 237 344
e 238 239
e 238 330
e 238 344
e 239 331
e 239 747
e 239 787
e 240 241
e 240 1043
e 241 341
e 241 342
e 241 1050
e 242 343
e 242 743
e 242 744
e 243 245
e 243 246
e 243 327
e 243 745
e 243 746
e 243 1102
e 244 245
e 244 592
e 244 769
e 244 1041
e 245 592
e 245 1041
e 245 1102
e 246 774
e 246 804
e 246 1102
e 247 328
e 247 344
e 247 769
e 247 770
e 248 249
e 248 250
e 248 678
e 248 750
e 248 886
e 249 252
e 249 678
e 249 1275
e 249 1285
e 250 251
e 250 529
e 250 530
e 251 252
e 251 529
e 251 1284
e 252 1282
e 252 1285
e 253 255
e 253 256
e 254 255
e 254 256
e 254 258
e 254 262
e 254 844
e 255 256
e 255 263
e 255 843
e 255 844
e 255 847
e 257 415
e 257 540
e 257 909
e 258 262
e 258 542
e 258 544
e 258 844
e 259 260
e 259 261
e 259 542
e 259 543
e 259 548
e 259 672
e 260 261
e 260 541
e 260 543
e 261 541
e 261 543
e 261 1163
e 261 1167
e 262 544
e 263 264
e 263 640
e 263 643
e 263 843
e 263 1137
e 264 640
e 264 641
e 264 642
e 264 843
e 264 1277
e 265 269
e 265 610
e 265 961
e 265 977
e 266 352
e 266 1180
e 266 1182
e 267 268
e 267 439
e 267 442
e 267 978
e 268 269
e 268 362
e 268 981
e 269 362
e 269 961
e 270 435
e 270 440
e 270 441
e 270 446
e 270 447
e 270 584
e 271 274
e 271 275
e 271 432
e 271 438
e 271 484
e 271 714
e 272 273
e 272 529
e 272 530
e 273 530
e 273 618
e 273 905
e 274 275
e 274 484
e 274 485
e 274 560
e 274 919
e 275 306
e 275 919
e 276 575
e 276 577
e 276 581
e 276 912
e 276 1048
e 277 333
e 277 441
e 277 454
e 277 572
e 277 583
e 277 584
e 278 279
e 278 518
e 278 519
e 278 823
e 278 825
e 279 519
e 279 520
e 279 823
e 280 283
e 280 285
e 280 287
e 280 376
e 280 378
e 280 379
e 281 282
e 281 283
e 281 284
e 281 373
e 281 374
e 282 283
e 282 284
e 282 285
e 283 285
e 283 374
e 283 376
e 283 377
e 284 285
e 284 289
e 284 373
e 285 286
e 285 287
e 286 287
e 286 289
e 286 545
e 287 288
e 287 379
e 287 545
e 288 379
e 288 545
e 289 373
e 289 545
e 290 401
e 290 1089
e 291 292
e 291 293
e 291 985
e 291 1052
e 291 1053
e 292 293
e 292 294
e 292 850
e 292 854
e 292 985
e 293 294
e 293 856
e 293 1052
e 293 1141
e 294 1141
e 295 296
e 297 298
e 297 449
e 297 565
e 297 719
e 298 454
e 298 557
e 298 719
e 299 871
e 299 902
e 299 1082
e 299 1151
e 300 355
e 300 531
e 301 952
e 301 976
e 301 1045
e 301 1243
e 302 973
e 302 1120
e 302 1121
e 302 1124
e 303 304
e 303 788
e 303 790
e 303 794
e 303 1150
e 304 789
e 304 794
e 304 1149
e 304 1150
e 305 793
e 305 799
e 305 800
e 305 801
e 305 1078
e 305 1088
e 306 307
e 306 714
e 306 919
e 307 444
e 307 445
e 307 714
e 307 919
e 307 921
e 308 309
e 308 775
e 308 776
e 308 1224
e 309 775
e 309 776
e 310 612
e 310 1004
e 310 1152
e 311 968
e 311 1148
e 311 1173
e 312 313
e 312 314
e 313 314
e 313 383
e 313 609
e 314 609
e 314 1076
e 314 1077
e 315 776
e 315 891
e 315 892
e 316 540
e 316 653
e 316 655
e 316 781
e 316 890
e 316 892
e 316 909
e 317 319
e 317 332
e 317 568
e 317 574
e 317 732
e 318 319
e 318 320
e 318 431
e 318 438
e 318 732
e 319 320
e 319 436
e 319 574
e 319 732
e 320 436
e 320 438
e 320 443
e 320 455
e 320 573
e 321 620
e 321 748
e 321 907
e 321 908
e 322 324
e 322 621
e 322 623
e 322 905
e 323 615
e 323 622
e 323 749
e 323 752
e 323 754
e 324 905
e 325 340
e 325 553
e 325 747
e 326 327
e 326 329
e 326 592
e 326 1037
e 327 592
e 327 1037
e 328 339
e 328 770
e 328 1041
e 329 330
e 329 592
e 329 1038
e 329 1039
e 330 331
e 330 586
e 331 587
e 331 747
e 331 768
e 332 568
e 332 679
e 332 732
e 332 805
e 333 441
e 333 447
e 333 572
e 333 582
e 334 335
e 334 336
e 334 338
e 334 635
e 334 886
e 335 336
e 335 337
e 335 405
e 335 906
e 336 337
e 336 338
e 337 338
e 337 405
e 337 839
e 337 841
e 337 878
e 337 879
e 338 878
e 338 881
e 338 1157
e 339 818
e 339 922
e 341 552
e 341 1043
e 341 1050
e 342 343
e 342 1050
e 345 554
e 345 824
e 346 347
e 346 350
e 346 351
e 346 1056
e 346 1058
e 347 348
e 347 349
e 347 351
e 347 1058
e 347 1073
e 348 349
e 348 351
e 348 1059
e 349 656
e 349 1057
e 349 1059
e 349 1073
e 350 351
e 350 1059
e 350 1072
e 351 1059
e 352 353
e 352 355
e 352 370
e 352 685
e 352 1106
e 352 1180
e 352 1182
e 353 356
e 353 357
e 353 694
e 353 1106
e 353 1182
e 354 357
e 354 1181
e 354 1182
e 355 357
e 355 531
e 355 810
e 355 813
e 355 1180
e 355 1181
e 356 357
e 356 1182
e 357 813
e 357 1181
e 358 359
e 358 1137
e 358 1138
e 358 1236
e 359 1137
e 359 1138
e 360 361
e 360 412
e 360 644
e 360 807
e 360 870
e 360 1109
e 361 412
e 361 517
e 361 870
e 361 942
e 361 1146
e 361 1147
e 362 400
e 362 1087
e 363 364
e 363 368
e 363 1235
e 364 365
e 364 366
e 364 368
e 364 1232
e 364 1233
e 364 1235
e 365 366
e 365 1232
e 366 782
e 366 783
e 367 368
e 367 1112
e 367 1233
e 367 1234
e 367 1235
e 368 1233
e 369 370
e 369 371
e 369 372
e 369 684
e 369 685
e 369 1133
e 370 371
e 370 372
e 370 685
e 371 685
e 372 1133
e 372 1134
e 373 413
e 373 545
e 373 963
e 374 377
e 374 382
e 375 376
e 375 378
e 375 811
e 375 1083
e 376 378
e 376 1083
e 377 382
e 377 1083
e 378 379
e 378 811
e 378 1043
e 379 545
e 379 1043
e 380 381
e 380 1191
e 380 1302
e 380 1305
e 381 1191
e 381 1195
e 381 1196
e 381 1208
e 382 610
e 382 898
e 382 899
e 382 1190
e 383 609
e 383 893
e 383 894
e 383 898
e 383 899
e 384 385
e 384 386
e 384 681
e 384 1032
e 384 1286
e 384 1287
e 384 1289
e 385 388
e 385 462
e 385 632
e 385 634
e 385 681
e 385 1289
e 386 387
e 386 1014
e 386 1100
e 386 1288
e 386 1289
e 387 1008
e 387 1014
e 387 1287
e 388 462
e 388 463
e 388 614
e 388 1100
e 388 1288
e 388 1289
e 389 390
e 389 392
e 389 394
e 389 722
e 389 829
e 390 391
e 390 392
e 390 393
e 390 829
e 390 831
e 390 832
e 391 393
e 391 394
e 391 631
e 391 633
e 391 832
e 392 393
e 392 394
e 393 394
e 394 631
e 394 1068
e 394 1096
e 395 396
e 395 397
e 395 1140
e 396 397
e 396 537
e 397 538
e 397 856
e 397 1140
e 398 1022
e 398 1028
e 398 1034
e 398 1035
e 398 1071
e 398 1245
e 399 402
e 399 403
e 399 872
e 399 903
e 399 1129
e 399 1131
e 400 403
e 400 807
e 400 1030
e 401 402
e 401 403
e 401 1089
e 402 403
e 402 872
e 402 974
e 402 1012
e 402 1089
e 403 1030
e 403 1129
e 404 616
e 404 838
e 404 840
e 404 906
e 405 836
e 405 837
e 405 838
e 405 840
e 405 841
e 405 906
e 406 628
e 406 834
e 406 838
e 406 839
e 407 408
e 407 409
e 407 410
e 407 1269
e 408 409
e 408 661
e 408 662
e 408 730
e 409 410
e 409 730
e 409 772
e 409 1268
e 410 1268
e 410 1269
e 411 412
e 411 413
e 411 960
e 411 965
e 411 1258
e 411 1259
e 411 1260
e 412 517
e 412 554
e 412 824
e 412 1109
e 412 1260
e 412 1261
e 412 1262
e 413 960
e 413 963
e 414 415
e 414 647
e 414 1273
e 415 540
e 415 647
e 416 421
e 416 428
e 417 423
e 417 427
e 417 429
e 417 430
e 417 459
e 417 468
e 417 470
e 418 421
e 418 425
e 418 426
e 418 833
e 419 460
e 419 595
e 419 599
e 419 625
e 420 422
e 420 461
e 420 466
e 420 468
e 421 424
e 421 425
e 421 428
e 422 423
e 422 427
e 422 466
e 422 468
e 423 427
e 423 468
e 424 425
e 424 428
e 424 596
e 425 596
e 426 469
e 426 470
e 426 833
e 427 469
e 428 596
e 429 459
e 429 467
e 429 625
e 430 459
e 430 460
e 430 470
e 431 432
e 431 438
e 431 729
e 432 438
e 432 729
e 433 434
e 433 435
e 433 476
e 433 566
e 434 435
e 434 447
e 434 566
e 435 440
e 435 442
e 435 447
e 435 476
e 435 575
e 435 576
e 436 443
e 436 574
e 437 508
e 437 762
e 437 806
e 437 1189
e 437 1203
e 438 444
e 438 455
e 438 714
e 439 440
e 439 442
e 439 474
e 439 477
e 439 978
e 440 446
e 441 447
e 441 584
e 443 573
e 443 574
e 444 445
e 444 455
e 444 706
e 444 714
e 445 471
e 445 580
e 445 706
e 445 921
e 446 584
e 448 456
e 448 480
e 448 507
e 448 560
e 448 920
e 449 454
e 449 565
e 449 717
e 449 719
e 450 488
e 450 489
e 450 708
e 450 716
e 450 924
e 450 928
e 450 930
e 451 498
e 451 500
e 451 505
e 451 509
e 451 515
e 451 947
e 452 458
e 452 481
e 452 709
e 452 925
e 452 926
e 452 927
e 452 929
e 452 935
e 453 522
e 453 680
e 453 1189
e 453 1203
e 453 1206
e 454 583
e 454 717
e 454 719
e 454 1219
e 455 573
e 455 706
e 456 473
e 456 480
e 456 569
e 456 709
e 456 976
e 457 718
e 457 924
e 457 975
e 457 1118
e 458 473
e 458 709
e 458 727
e 458 926
e 458 1187
e 459 460
e 459 625
e 460 470
e 460 599
e 461 466
e 461 467
e 462 463
e 462 464
e 462 634
e 463 464
e 463 614
e 463 721
e 463 1175
e 463 1212
e 463 1264
e 464 465
e 464 720
e 464 721
e 465 720
e 465 721
e 465 877
e 465 1080
e 467 468
e 467 625
e 469 470
e 470 599
e 470 833
e 471 578
e 471 580
e 471 706
e 472 507
e 472 563
e 472 913
e 472 920
e 472 923
e 473 480
e 473 558
e 473 559
e 473 709
e 473 726
e 473 727
e 474 477
e 474 980
e 475 479
e 475 557
e 475 567
e 476 561
e 476 575
e 476 1048
e 477 978
e 477 980
e 478 485
e 478 486
e 478 560
e 478 1051
e 478 1183
e 478 1201
e 479 567
e 479 1192
e 480 558
e 480 1267
e 481 491
e 481 709
e 481 718
e 481 925
e 482 707
e 482 733
e 482 763
e 482 805
e 483 490
e 483 679
e 483 809
e 483 1257
e 484 485
e 484 728
e 484 729
e 485 486
e 485 728
e 486 728
e 486 761
e 486 1201
e 486 1205
e 486 1206
e 486 1207
e 487 497
e 487 504
e 487 711
e 487 943
e 487 944
e 488 489
e 488 716
e 488 935
e 489 585
e 489 928
e 489 935
e 490 679
e 490 806
e 490 809
e 490 1204
e 491 718
e 491 924
e 491 925
e 491 930
e 492 493
e 492 499
e 492 515
e 492 516
e 492 524
e 492 1189
e 493 498
e 493 499
e 493 515
e 494 505
e 494 514
e 494 516
e 494 522
e 494 524
e 495 496
e 495 522
e 495 523
e 495 525
e 495 945
e 495 1051
e 496 522
e 496 1200
e 496 1201
e 497 708
e 497 711
e 497 716
e 497 931
e 497 943
e 497 1184
e 498 499
e 498 500
e 498 515
e 499 500
e 499 501
e 500 501
e 500 502
e 500 509
e 501 502
e 501 509
e 502 509
e 503 506
e 503 1187
e 503 1188
e 503 1202
e 503 1267
e 504 943
e 504 944
e 504 945
e 505 514
e 505 515
e 505 516
e 506 559
e 506 727
e 506 1187
e 506 1267
e 507 569
e 507 920
e 508 1189
e 508 1203
e 509 510
e 509 947
e 510 511
e 510 512
e 510 711
e 510 947
e 511 512
e 511 711
e 512 513
e 512 713
e 512 944
e 512 947
e 513 522
e 513 523
e 513 713
e 513 944
e 514 522
e 514 713
e 514 947
e 515 516
e 516 524
e 517 518
e 517 824
e 517 825
e 517 1147
e 518 824
e 518 825
e 519 520
e 519 824
e 520 819
e 520 824
e 521 896
e 521 901
e 521 902
e 522 523
e 522 524
e 522 680
e 522 713
e 522 1189
e 522 1200
e 523 944
e 523 945
e 524 1189
e 525 526
e 525 527
e 525 945
e 525 1051
e 526 527
e 526 528
e 526 1051
e 526 1183
e 526 1184
e 526 1186
e 527 945
e 527 1184
e 528 1183
e 528 1186
e 529 530
e 529 1284
e 530 618
e 532 533
e 532 535
e 532 539
e 532 778
e 533 534
e 533 537
e 533 539
e 534 536
e 534 537
e 534 538
e 535 536
e 535 649
e 535 778
e 535 780
e 536 538
e 536 649
e 536 856
e 536 858
e 537 538
e 537 539
e 538 856
e 540 647
e 540 654
e 540 655
e 541 543
e 542 544
e 542 844
e 542 848
e 546 547
e 546 1091
e 546 1092
e 546 1093
e 546 1095
e 547 1092
e 547 1095
e 548 672
e 548 674
e 548 675
e 549 550
e 549 551
e 549 1160
e 549 1301
e 550 551
e 550 773
e 550 1133
e 551 1133
e 551 1134
e 551 1301
e 552 1043
e 552 1049
e 553 747
e 553 768
e 553 1042
e 553 1046
e 553 1049
e 554 787
e 554 824
e 554 1262
e 556 562
e 556 563
e 556 918
e 556 1044
e 557 567
e 558 559
e 558 1267
e 559 726
e 559 727
e 559 1267
e 560 919
e 560 920
e 560 1202
e 560 1267
e 561 566
e 561 573
e 561 1047
e 562 918
e 562 1044
e 562 1119
e 562 1121
e 562 1242
e 563 569
e 563 913
e 563 918
e 563 953
e 563 1044
e 564 565
e 564 715
e 565 715
e 565 717
e 566 574
e 568 582
e 568 733
e 568 805
e 569 1243
e 570 814
e 570 1192
e 570 1193
e 571 1075
e 572 583
e 572 1219
e 573 574
e 573 706
e 573 1047
e 575 576
e 575 577
e 575 1048
e 576 577
e 577 579
e 577 1242
e 578 579
e 578 580
e 578 581
e 578 706
e 578 918
e 579 581
e 580 913
e 580 918
e 580 921
e 580 923
e 581 706
e 581 912
e 583 1219
e 585 927
e 585 935
e 586 587
e 586 1039
e 586 1040
e 586 1046
e 587 768
e 587 1046
e 588 591
e 588 874
e 588 875
e 588 1290
e 589 597
e 590 599
e 591 598
e 591 875
e 593 594
e 593 875
e 593 1297
e 594 797
e 594 873
e 594 874
e 594 1297
e 595 599
e 596 1295
e 597 1294
e 598 1298
e 600 601
e 600 1280
e 600 1281
e 601 755
e 601 759
e 601 1280
e 601 1281
e 602 656
e 602 1244
e 602 1245
e 603 604
e 603 1091
e 603 1095
e 604 1095
e 604 1215
e 605 735
e 605 738
e 605 742
e 607 1023
e 607 1025
e 608 609
e 608 610
e 608 1076
e 609 610
e 609 899
e 609 1076
e 610 899
e 611 612
e 611 613
e 611 614
e 611 1135
e 611 1264
e 612 613
e 612 1101
e 612 1143
e 612 1152
e 613 614
e 613 1100
e 613 1101
e 614 1100
e 614 1264
e 615 616
e 615 620
e 615 749
e 615 906
e 616 620
e 616 906
e 616 907
e 617 621
e 617 623
e 617 908
e 618 622
e 618 623
e 618 753
e 618 905
e 619 624
e 619 1142
e 619 1158
e 620 748
e 620 749
e 620 907
e 621 623
e 622 623
e 622 748
e 622 749
e 622 751
e 622 752
e 622 753
e 622 754
e 623 748
e 623 905
e 623 908
e 624 777
e 624 1142
e 624 1158
e 626 627
e 626 699
e 626 703
e 626 1105
e 626 1263
e 627 688
e 627 689
e 627 690
e 627 692
e 627 702
e 627 703
e 628 836
e 628 837
e 628 838
e 628 839
e 628 841
e 629 630
e 629 778
e 629 781
e 630 669
e 630 670
e 630 778
e 630 779
e 630 781
e 631 633
e 631 883
e 631 884
e 632 634
e 632 681
e 632 884
e 633 720
e 633 883
e 634 883
e 634 884
e 635 636
e 635 637
e 635 885
e 635 886
e 635 887
e 635 888
e 635 1157
e 635 1160
e 636 637
e 636 1160
e 637 1155
e 637 1157
e 637 1160
e 638 639
e 638 810
e 638 812
e 638 1138
e 639 671
e 639 812
e 640 641
e 640 643
e 641 642
e 641 643
e 642 643
e 642 1137
e 642 1237
e 642 1277
e 643 1137
e 644 807
e 644 808
e 644 870
e 645 646
e 645 991
e 645 999
e 646 991
e 646 994
e 646 995
e 646 998
e 646 999
e 647 648
e 647 650
e 647 651
e 647 1273
e 648 651
e 648 855
e 648 859
e 649 652
e 649 780
e 649 858
e 649 1154
e 650 651
e 650 1154
e 651 855
e 651 1154
e 652 653
e 652 780
e 653 654
e 653 655
e 653 781
e 654 655
e 656 657
e 656 658
e 656 1073
e 656 1244
e 657 658
e 657 1093
e 657 1244
e 658 986
e 658 1057
e 658 1093
e 659 665
e 659 826
e 659 827
e 659 1084
e 660 663
e 660 664
e 660 665
e 661 662
e 661 663
e 661 664
e 661 666
e 662 664
e 662 730
e 663 664
e 663 665
e 663 1085
e 664 665
e 665 1084
e 666 1085
e 666 1232
e 666 1233
e 667 668
e 667 779
e 667 876
e 668 669
e 668 670
e 668 778
e 668 779
e 668 780
e 668 876
e 669 670
e 669 778
e 670 876
e 671 933
e 672 673
e 672 674
e 672 1166
e 672 1167
e 673 674
e 673 1165
e 673 1166
e 673 1168
e 673 1169
e 673 1171
e 673 1172
e 674 675
e 674 1165
e 674 1292
e 675 846
e 675 1283
e 675 1292
e 676 677
e 676 1213
e 676 1214
e 676 1216
e 677 1094
e 677 1213
e 677 1215
e 677 1216
e 678 750
e 678 885
e 678 887
e 678 1275
e 678 1279
e 679 712
e 679 732
e 679 805
e 679 806
e 679 946
e 679 1257
e 679 1265
e 680 1200
e 680 1206
e 681 705
e 681 1032
e 681 1033
e 682 684
e 682 696
e 682 698
e 682 701
e 682 828
e 682 1107
e 682 1133
e 682 1240
e 683 684
e 683 685
e 683 690
e 683 692
e 683 1104
e 683 1105
e 683 1106
e 684 685
e 684 698
e 684 1104
e 685 1106
e 686 687
e 686 691
e 686 697
e 686 818
e 686 825
e 686 842
e 686 1103
e 686 1108
e 686 1145
e 687 691
e 687 693
e 687 695
e 687 842
e 688 689
e 688 690
e 688 694
e 688 1106
e 689 694
e 689 697
e 689 702
e 689 703
e 689 1108
e 690 692
e 690 1106
e 691 1103
e 691 1104
e 691 1105
e 691 1263
e 692 699
e 692 1105
e 693 700
e 693 828
e 693 842
e 693 1107
e 694 697
e 694 1106
e 695 698
e 695 700
e 695 701
e 695 1104
e 696 701
e 696 1107
e 697 1108
e 698 701
e 698 1104
e 699 1105
e 700 701
e 700 1107
e 701 1107
e 702 703
e 703 1103
e 703 1263
e 704 705
e 704 1033
e 704 1060
e 704 1070
e 704 1072
e 705 1033
e 706 912
e 707 715
e 707 733
e 707 762
e 707 767
e 707 1218
e 708 711
e 708 716
e 709 718
e 709 975
e 710 806
e 710 1203
e 710 1204
e 710 1205
e 710 1217
e 711 944
e 712 763
e 712 805
e 712 806
e 713 947
e 715 717
e 715 814
e 715 1218
e 716 931
e 716 935
e 717 1218
e 717 1219
e 718 924
e 718 975
e 721 1080
e 721 1176
e 721 1212
e 722 723
e 722 1096
e 722 1097
e 722 1098
e 723 1096
e 723 1098
e 724 725
e 724 1161
e 724 1162
e 724 1268
e 724 1269
e 725 1161
e 725 1269
e 725 1270
e 726 727
e 727 1187
e 728 761
e 728 809
e 728 1217
e 728 1256
e 728 1266
e 729 732
e 729 946
e 729 1266
e 730 772
e 730 773
e 730 826
e 730 1240
e 731 772
e 731 773
e 732 946
e 733 805
e 733 1218
e 734 737
e 734 739
e 734 740
e 734 741
e 734 1090
e 734 1099
e 735 736
e 735 742
e 735 1006
e 735 1012
e 735 1015
e 735 1016
e 736 738
e 736 1011
e 736 1016
e 737 740
e 737 1009
e 737 1011
e 737 1013
e 738 742
e 738 1010
e 738 1011
e 738 1013
e 739 740
e 739 777
e 739 1099
e 739 1143
e 740 1009
e 740 1143
e 741 1010
e 741 1013
e 741 1090
e 741 1158
e 742 1010
e 742 1012
e 743 744
e 744 745
e 744 746
e 744 774
e 745 746
e 746 774
e 747 768
e 748 749
e 748 908
e 750 886
e 750 887
e 751 752
e 751 754
e 752 753
e 752 754
e 755 759
e 755 1054
e 756 760
e 756 786
e 756 1055
e 757 758
e 757 1054
e 757 1055
e 757 1211
e 758 786
e 758 1054
e 758 1055
e 759 1054
e 759 1281
e 760 786
e 761 1207
e 761 1217
e 762 763
e 762 764
e 762 767
e 762 806
e 762 1189
e 763 764
e 763 767
e 763 805
e 764 767
e 765 827
e 765 842
e 765 849
e 765 910
e 766 941
e 766 1213
e 766 1214
e 766 1241
e 769 770
e 770 1041
e 771 1036
e 771 1037
e 771 1040
e 771 1046
e 772 773
e 773 1133
e 773 1240
e 774 804
e 775 914
e 775 1224
e 776 1224
e 777 1090
e 777 1099
e 777 1142
e 777 1158
e 777 1159
e 778 780
e 779 780
e 779 781
e 779 876
e 780 781
e 782 783
e 784 785
e 784 1003
e 785 1003
e 785 1112
e 785 1235
e 786 1054
e 786 1055
e 788 790
e 788 796
e 788 900
e 788 902
e 789 795
e 789 797
e 789 798
e 789 1149
e 790 799
e 790 900
e 790 1078
e 790 1150
e 791 800
e 791 801
e 791 802
e 791 900
e 792 793
e 792 800
e 792 802
e 792 1088
e 792 1149
e 793 800
e 793 1088
e 794 796
e 794 1082
e 795 797
e 795 873
e 795 1149
e 796 1082
e 797 798
e 797 1297
e 799 801
e 799 900
e 799 1078
e 800 801
e 801 900
e 803 894
e 803 895
e 803 1190
e 806 1204
e 807 808
e 807 1030
e 808 937
e 808 1029
e 808 1030
e 808 1130
e 808 1132
e 809 1204
e 809 1217
e 809 1256
e 810 812
e 810 813
e 810 970
e 811 812
e 811 813
e 811 969
e 811 971
e 811 972
e 811 1043
e 811 1083
e 812 970
e 812 971
e 813 969
e 813 970
e 813 1043
e 815 816
e 815 817
e 815 820
e 815 822
e 815 1097
e 816 820
e 816 821
e 816 822
e 816 1058
e 817 821
e 817 822
e 817 1064
e 817 1097
e 818 819
e 818 824
e 818 825
e 819 823
e 819 825
e 820 1058
e 821 822
e 821 1056
e 821 1058
e 821 1064
e 821 1070
e 823 825
e 825 1145
e 825 1146
e 825 1147
e 826 827
e 826 828
e 826 911
e 826 1240
e 827 910
e 827 911
e 828 842
e 828 910
e 828 911
e 828 1107
e 828 1240
e 829 830
e 829 831
e 830 831
e 830 868
e 831 832
e 831 868
e 831 1221
e 832 1221
e 832 1228
e 834 839
e 834 863
e 834 864
e 834 867
e 835 860
e 835 864
e 835 865
e 835 866
e 836 837
e 836 841
e 837 838
e 838 840
e 839 841
e 839 861
e 839 864
e 839 879
e 839 880
e 839 882
e 840 906
e 842 849
e 842 910
e 842 1145
e 843 847
e 844 845
e 844 847
e 844 848
e 845 846
e 845 847
e 845 848
e 845 1031
e 846 848
e 846 1031
e 846 1283
e 849 936
e 849 1144
e 849 1145
e 850 854
e 850 869
e 850 984
e 851 852
e 851 853
e 851 859
e 851 869
e 852 853
e 852 854
e 852 857
e 852 984
e 853 855
e 853 857
e 853 858
e 853 859
e 854 984
e 854 985
e 855 858
e 855 859
e 855 1154
e 856 858
e 856 1052
e 856 1140
e 856 1141
e 857 858
e 857 985
e 857 1052
e 857 1053
e 858 1052
e 858 1154
e 859 869
e 860 861
e 860 862
e 860 864
e 860 866
e 861 862
e 861 864
e 861 880
e 861 1117
e 861 1161
e 861 1162
e 862 866
e 862 1126
e 863 867
e 864 865
e 864 867
e 865 866
e 865 867
e 868 914
e 868 916
e 868 1221
e 868 1224
e 868 1229
e 869 984
e 870 938
e 870 942
e 871 901
e 871 1151
e 871 1295
e 872 903
e 872 1012
e 872 1015
e 873 874
e 873 1149
e 873 1290
e 874 875
e 874 1290
e 877 998
e 877 999
e 877 1079
e 877 1080
e 878 881
e 879 882
e 880 882
e 880 1162
e 881 1157
e 882 1162
e 883 884
e 885 887
e 885 888
e 885 1278
e 885 1279
e 886 887
e 888 1160
e 888 1237
e 888 1276
e 888 1278
e 888 1301
e 889 890
e 889 891
e 889 909
e 889 917
e 890 891
e 890 892
e 890 909
e 891 892
e 891 917
e 891 1224
e 893 894
e 893 895
e 893 896
e 894 898
e 894 1190
e 895 897
e 896 897
e 896 901
e 898 899
e 898 1190
e 900 902
e 901 902
e 901 1151
e 902 1082
e 902 1151
e 903 904
e 903 1000
e 903 1131
e 904 987
e 904 988
e 904 1008
e 909 915
e 909 1227
e 910 911
e 912 1047
e 912 1048
e 913 918
e 913 923
e 914 916
e 914 1224
e 915 917
e 915 1221
e 915 1223
e 915 1225
e 915 1227
e 915 1228
e 917 1222
e 917 1223
e 917 1224
e 917 1230
e 919 920
e 920 921
e 921 923
e 922 1041
e 922 1102
e 924 930
e 925 929
e 925 930
e 926 931
e 926 935
e 926 948
e 926 1187
e 927 928
e 927 929
e 927 935
e 928 929
e 928 930
e 929 930
e 931 935
e 931 948
e 932 933
e 932 934
e 933 934
e 936 939
e 936 940
e 936 941
e 936 942
e 936 1144
e 936 1146
e 936 1241
e 937 938
e 937 941
e 937 1132
e 937 1214
e 938 939
e 938 940
e 938 941
e 938 942
e 939 940
e 939 942
e 940 941
e 941 1214
e 941 1241
e 942 1146
e 943 1184
e 944 945
e 945 1184
e 946 1265
e 946 1266
e 948 1184
e 948 1185
e 948 1187
e 949 950
e 949 974
e 949 1122
e 949 1123
e 949 1124
e 950 974
e 950 976
e 950 1123
e 950 1125
e 951 953
e 951 1044
e 951 1243
e 952 973
e 952 1044
e 952 1045
e 952 1243
e 953 1044
e 953 1243
e 954 976
e 954 1045
e 954 1123
e 955 956
e 955 957
e 955 958
e 955 1000
e 956 957
e 956 1001
e 956 1002
e 957 1002
e 957 1092
e 957 1094
e 958 1000
e 958 1001
e 959 962
e 959 964
e 959 965
e 959 968
e 959 1148
e 959 1173
e 960 963
e 960 965
e 960 968
e 961 962
e 961 964
e 961 965
e 961 966
e 961 1148
e 962 964
e 962 1148
e 964 966
e 965 966
e 967 968
e 968 1173
e 969 970
e 969 971
e 969 972
e 970 971
e 971 972
e 973 1044
e 973 1045
e 973 1121
e 973 1124
e 974 1010
e 974 1012
e 974 1122
e 974 1125
e 974 1158
e 975 976
e 975 1118
e 975 1125
e 975 1158
e 976 1045
e 976 1123
e 976 1125
e 976 1243
e 977 979
e 977 980
e 977 1075
e 978 979
e 978 980
e 978 981
e 979 980
e 979 981
e 979 1086
e 980 1074
e 980 1075
e 981 1086
e 982 983
e 982 989
e 982 1032
e 982 1033
e 982 1286
e 983 986
e 983 987
e 983 988
e 983 989
e 983 1286
e 986 988
e 986 989
e 986 1057
e 987 988
e 987 1008
e 987 1286
e 987 1287
e 989 1033
e 989 1057
e 989 1060
e 990 992
e 990 993
e 990 994
e 990 995
e 990 996
e 991 995
e 992 993
e 992 1227
e 993 996
e 993 999
e 993 1227
e 993 1228
e 994 995
e 994 998
e 995 996
e 995 997
e 996 997
e 996 999
e 997 999
e 998 999
e 998 1079
e 1000 1001
e 1000 1002
e 1000 1131
e 1001 1002
e 1002 1094
e 1002 1130
e 1002 1131
e 1002 1132
e 1002 1216
e 1003 1111
e 1003 1112
e 1003 1113
e 1003 1115
e 1003 1116
e 1004 1005
e 1004 1152
e 1005 1142
e 1005 1152
e 1005 1153
e 1006 1007
e 1006 1015
e 1007 1008
e 1007 1015
e 1007 1016
e 1008 1014
e 1008 1016
e 1008 1287
e 1009 1011
e 1009 1014
e 1009 1143
e 1010 1012
e 1010 1013
e 1010 1158
e 1011 1013
e 1011 1014
e 1011 1016
e 1012 1015
e 1014 1016
e 1014 1100
e 1014 1101
e 1014 1143
e 1017 1018
e 1017 1020
e 1018 1019
e 1018 1020
e 1018 1238
e 1019 1020
e 1019 1238
e 1019 1239
e 1020 1239
e 1021 1022
e 1021 1023
e 1021 1024
e 1022 1028
e 1023 1024
e 1023 1025
e 1023 1026
e 1024 1026
e 1025 1026
e 1025 1027
e 1025 1238
e 1025 1239
e 1027 1028
e 1027 1238
e 1028 1071
e 1029 1030
e 1029 1128
e 1029 1130
e 1030 1127
e 1030 1128
e 1030 1129
e 1031 1275
e 1031 1283
e 1031 1285
e 1032 1033
e 1032 1286
e 1033 1060
e 1034 1035
e 1034 1071
e 1034 1245
e 1035 1071
e 1037 1038
e 1037 1040
e 1038 1039
e 1038 1040
e 1039 1040
e 1040 1046
e 1042 1049
e 1044 1121
e 1045 1123
e 1047 1048
e 1049 1050
e 1051 1183
e 1051 1201
e 1052 1053
e 1055 1211
e 1056 1058
e 1056 1070
e 1056 1072
e 1057 1059
e 1057 1060
e 1057 1072
e 1058 1073
e 1059 1072
e 1060 1072
e 1061 1062
e 1061 1063
e 1061 1065
e 1061 1066
e 1061 1081
e 1061 1246
e 1061 1251
e 1062 1063
e 1062 1067
e 1062 1246
e 1062 1255
e 1063 1067
e 1063 1248
e 1063 1251
e 1064 1068
e 1064 1070
e 1064 1097
e 1064 1249
e 1064 1252
e 1065 1066
e 1065 1069
e 1065 1081
e 1065 1250
e 1065 1254
e 1066 1067
e 1066 1246
e 1066 1254
e 1066 1255
e 1067 1250
e 1067 1254
e 1067 1255
e 1068 1069
e 1068 1096
e 1068 1097
e 1068 1098
e 1068 1249
e 1068 1253
e 1069 1250
e 1069 1253
e 1070 1072
e 1070 1081
e 1070 1252
e 1074 1075
e 1076 1077
e 1078 1088
e 1078 1149
e 1078 1150
e 1079 1080
e 1079 1177
e 1080 1176
e 1081 1251
e 1083 1190
e 1084 1239
e 1087 1120
e 1087 1122
e 1088 1149
e 1090 1099
e 1090 1158
e 1091 1093
e 1091 1095
e 1091 1244
e 1092 1093
e 1092 1094
e 1092 1095
e 1093 1244
e 1094 1095
e 1094 1216
e 1095 1215
e 1096 1098
e 1097 1098
e 1100 1101
e 1100 1288
e 1101 1143
e 1103 1108
e 1103 1263
e 1104 1105
e 1105 1263
e 1109 1110
e 1111 1112
e 1111 1115
e 1111 1126
e 1112 1117
e 1112 1126
e 1112 1234
e 1112 1235
e 1113 1114
e 1113 1115
e 1113 1116
e 1114 1115
e 1114 1116
e 1115 1116
e 1115 1126
e 1117 1126
e 1117 1161
e 1117 1234
e 1117 1270
e 1118 1142
e 1118 1158
e 1119 1120
e 1119 1121
e 1119 1242
e 1120 1121
e 1120 1122
e 1120 1124
e 1122 1124
e 1123 1124
e 1125 1158
e 1127 1128
e 1127 1129
e 1127 1130
e 1127 1131
e 1128 1130
e 1129 1131
e 1130 1131
e 1130 1132
e 1132 1214
e 1132 1216
e 1133 1134
e 1133 1240
e 1135 1136
e 1135 1264
e 1136 1179
e 1136 1264
e 1137 1236
e 1137 1237
e 1139 1140
e 1139 1141
e 1140 1141
e 1142 1143
e 1142 1153
e 1142 1158
e 1143 1152
e 1143 1153
e 1144 1145
e 1144 1146
e 1145 1146
e 1146 1147
e 1148 1173
e 1149 1150
e 1149 1290
e 1152 1153
e 1155 1156
e 1155 1157
e 1155 1160
e 1156 1160
e 1158 1159
e 1160 1301
e 1161 1162
e 1161 1270
e 1163 1164
e 1163 1166
e 1163 1167
e 1163 1171
e 1164 1166
e 1164 1170
e 1164 1171
e 1164 1172
e 1165 1168
e 1165 1292
e 1166 1167
e 1166 1169
e 1166 1170
e 1168 1171
e 1169 1170
e 1169 1172
e 1170 1172
e 1171 1172
e 1174 1177
e 1174 1191
e 1174 1198
e 1174 1211
e 1174 1304
e 1175 1179
e 1175 1208
e 1175 1212
e 1175 1264
e 1175 1303
e 1176 1177
e 1176 1209
e 1176 1210
e 1176 1212
e 1177 1198
e 1177 1209
e 1177 1211
e 1178 1195
e 1178 1196
e 1178 1197
e 1178 1210
e 1179 1264
e 1179 1303
e 1180 1181
e 1180 1182
e 1181 1182
e 1183 1186
e 1183 1202
e 1184 1185
e 1185 1186
e 1185 1187
e 1186 1188
e 1186 1202
e 1187 1188
e 1188 1202
e 1189 1203
e 1191 1194
e 1191 1195
e 1191 1198
e 1191 1304
e 1191 1305
e 1192 1193
e 1194 1195
e 1194 1197
e 1194 1198
e 1194 1199
e 1195 1196
e 1195 1197
e 1196 1208
e 1196 1210
e 1197 1199
e 1197 1209
e 1198 1199
e 1198 1209
e 1199 1209
e 1200 1201
e 1200 1206
e 1201 1206
e 1202 1267
e 1203 1205
e 1204 1217
e 1205 1206
e 1205 1207
e 1205 1217
e 1207 1217
e 1208 1210
e 1208 1212
e 1208 1302
e 1208 1303
e 1209 1210
e 1211 1304
e 1213 1214
e 1213 1215
e 1214 1216
e 1218 1219
e 1220 1222
e 1220 1224
e 1220 1226
e 1220 1229
e 1220 1231
e 1221 1228
e 1221 1229
e 1222 1224
e 1222 1226
e 1222 1230
e 1223 1225
e 1223 1230
e 1225 1226
e 1225 1229
e 1225 1230
e 1226 1229
e 1226 1230
e 1226 1231
e 1227 1228
e 1229 1231
e 1232 1233
e 1233 1234
e 1233 1270
e 1234 1270
e 1236 1237
e 1236 1301
e 1237 1276
e 1237 1277
e 1237 1301
e 1238 1239
e 1244 1245
e 1246 1255
e 1247 1248
e 1247 1249
e 1248 1249
e 1248 1251
e 1248 1252
e 1249 1252
e 1249 1253
e 1250 1254
e 1251 1252
e 1256 1257
e 1256 1265
e 1256 1266
e 1257 1265
e 1258 1259
e 1258 1260
e 1258 1262
e 1259 1262
e 1260 1261
e 1260 1262
e 1261 1262
e 1265 1266
e 1268 1269
e 1269 1270
e 1271 1272
e 1271 1273
e 1271 1274
e 1272 1273
e 1272 1274
e 1272 1280
e 1273 1274
e 1275 1277
e 1275 1279
e 1275 1285
e 1276 1277
e 1276 1278
e 1276 1279
e 1277 1279
e 1278 1279
e 1282 1283
e 1282 1284
e 1282 1285
e 1282 1291
e 1283 1285
e 1283 1291
e 1283 1292
e 1284 1291
e 1286 1287
e 1288 1289
e 1290 1293
e 1290 1294
e 1291 1292
e 1293 1294
e 1295 1296
e 1296 1298
e 1297 1298
e 1298 1300
e 1299 1300
e 1302 1303
e 1304 1305
c k 6
